org.jcp.jsr331.tck.linear/results/Knapsack.sol
solution status: optimal solution found
objective value:                                 -171
Vi4                                                10 	(obj:0)
Vi3                                                24 	(obj:0)
Vi2                                                 7 	(obj:0)
Vi0                                                 3 	(obj:0)
Vi5                                               171 	(obj:-1)
